; TIMESTAMP SWAP2 DUP4 SWAP2 PUSH cw_1 SWAP2 => PUSH cw_1 DUP4 SWAP2 TIMESTAMP SWAP4
(set-option :produce-proofs true)
; 
(set-info :status unknown)
(declare-fun storage_t ((_ BitVec 256) (_ BitVec 256) (_ BitVec 256) (_ BitVec 256) (_ BitVec 256) Int (_ BitVec 256)) (_ BitVec 256))
(declare-fun w_1 () (_ BitVec 256))
(declare-fun storage_s ((_ BitVec 256) (_ BitVec 256) (_ BitVec 256) (_ BitVec 256) (_ BitVec 256) Int (_ BitVec 256)) (_ BitVec 256))
(declare-fun exc_halt_t (Int) Bool)
(declare-fun exc_halt_s (Int) Bool)
(declare-fun sc_t (Int) (_ BitVec 6))
(declare-fun stack_t ((_ BitVec 256) (_ BitVec 256) (_ BitVec 256) (_ BitVec 256) (_ BitVec 256) Int (_ BitVec 6)) (_ BitVec 256))
(declare-fun stack_s ((_ BitVec 256) (_ BitVec 256) (_ BitVec 256) (_ BitVec 256) (_ BitVec 256) Int (_ BitVec 6)) (_ BitVec 256))
(declare-fun sc_s (Int) (_ BitVec 6))
(declare-fun used_gas_t ((_ BitVec 256) (_ BitVec 256) (_ BitVec 256) (_ BitVec 256) (_ BitVec 256) Int) Int)
(declare-fun used_gas_s ((_ BitVec 256) (_ BitVec 256) (_ BitVec 256) (_ BitVec 256) (_ BitVec 256) Int) Int)
(assert
 (exists ((x_0 (_ BitVec 256)) (x_1 (_ BitVec 256)) (x_2 (_ BitVec 256)) (x_TIMESTAMP (_ BitVec 256)) )(let (($x9422 (forall ((w (_ BitVec 256)) )(let ((?x2954 (storage_t x_0 x_1 x_2 w_1 x_TIMESTAMP 5 w)))
 (let ((?x8333 (storage_s x_0 x_1 x_2 w_1 x_TIMESTAMP 6 w)))
 (= ?x8333 ?x2954))))
 ))
 (let (($x1885 (exc_halt_t 5)))
 (let (($x772 (exc_halt_s 6)))
 (let (($x11108 (= $x772 $x1885)))
 (let (($x11456 (forall ((n (_ BitVec 6)) )(let ((?x8961 (sc_t 5)))
 (let (($x11447 (bvsle ?x8961 n)))
 (let ((?x11810 (stack_t x_0 x_1 x_2 w_1 x_TIMESTAMP 5 n)))
 (let ((?x5500 (stack_s x_0 x_1 x_2 w_1 x_TIMESTAMP 6 n)))
 (let (($x10762 (= ?x5500 ?x11810)))
 (or $x10762 $x11447)))))))
 ))
 (let ((?x8961 (sc_t 5)))
 (let ((?x926 (sc_s 6)))
 (let (($x5889 (= ?x926 ?x8961)))
 (let ((?x1423 (used_gas_t x_0 x_1 x_2 w_1 x_TIMESTAMP 0)))
 (let ((?x7959 (used_gas_s x_0 x_1 x_2 w_1 x_TIMESTAMP 0)))
 (let (($x7532 (= ?x7959 ?x1423)))
 (let (($x9442 (forall ((w (_ BitVec 256)) )(let ((?x171 (storage_t x_0 x_1 x_2 w_1 x_TIMESTAMP 0 w)))
 (let ((?x4609 (storage_s x_0 x_1 x_2 w_1 x_TIMESTAMP 0 w)))
 (= ?x4609 ?x171))))
 ))
 (let (($x56 (exc_halt_t 0)))
 (let (($x57 (exc_halt_s 0)))
 (let (($x58 (= $x57 $x56)))
 (let (($x11712 (forall ((n (_ BitVec 6)) )(let ((?x400 (stack_t x_0 x_1 x_2 w_1 x_TIMESTAMP 0 n)))
 (let ((?x8851 (stack_s x_0 x_1 x_2 w_1 x_TIMESTAMP 0 n)))
 (let (($x9406 (= ?x8851 ?x400)))
 (let ((?x63 (sc_t 0)))
 (let (($x4174 (bvsle ?x63 n)))
 (or $x4174 $x9406)))))))
 ))
 (let ((?x63 (sc_t 0)))
 (let ((?x72 (sc_s 0)))
 (let (($x73 (= ?x72 ?x63)))
 (let (($x9537 (= $x1885 (or (exc_halt_t 4) (not (bvsle (_ bv0 6) (bvadd (_ bv59 6) (sc_t 4))))))))
 (let (($x6814 (forall ((w (_ BitVec 256)) )(let ((?x8407 (storage_t x_0 x_1 x_2 w_1 x_TIMESTAMP 4 w)))
 (let ((?x2954 (storage_t x_0 x_1 x_2 w_1 x_TIMESTAMP 5 w)))
 (= ?x2954 ?x8407))))
 ))
 (let (($x10683 (forall ((n (_ BitVec 6)) )(let ((?x1732 (stack_t x_0 x_1 x_2 w_1 x_TIMESTAMP 4 n)))
 (let ((?x11810 (stack_t x_0 x_1 x_2 w_1 x_TIMESTAMP 5 n)))
 (or (bvsle (bvadd (_ bv59 6) (sc_t 4)) n) (= ?x11810 ?x1732)))))
 ))
 (let (($x10893 (= (used_gas_t x_0 x_1 x_2 w_1 x_TIMESTAMP 5) (+ 3 (used_gas_t x_0 x_1 x_2 w_1 x_TIMESTAMP 4)))))
 (let (($x7095 (= (stack_t x_0 x_1 x_2 w_1 x_TIMESTAMP 5 (bvadd (_ bv62 6) ?x8961)) (stack_t x_0 x_1 x_2 w_1 x_TIMESTAMP 4 (bvadd (_ bv62 6) (sc_t 4))))))
 (let (($x322 (= (stack_t x_0 x_1 x_2 w_1 x_TIMESTAMP 5 (bvadd (_ bv61 6) ?x8961)) (stack_t x_0 x_1 x_2 w_1 x_TIMESTAMP 4 (bvadd (_ bv61 6) (sc_t 4))))))
 (let (($x4032 (= (stack_t x_0 x_1 x_2 w_1 x_TIMESTAMP 5 (bvadd (_ bv60 6) ?x8961)) (stack_t x_0 x_1 x_2 w_1 x_TIMESTAMP 4 (bvadd (_ bv60 6) (sc_t 4))))))
 (let (($x11287 (= (stack_t x_0 x_1 x_2 w_1 x_TIMESTAMP 5 (bvadd (_ bv59 6) ?x8961)) (stack_t x_0 x_1 x_2 w_1 x_TIMESTAMP 4 (bvadd (_ bv63 6) (sc_t 4))))))
 (let (($x9666 (= (stack_t x_0 x_1 x_2 w_1 x_TIMESTAMP 5 (bvadd (_ bv63 6) ?x8961)) (stack_t x_0 x_1 x_2 w_1 x_TIMESTAMP 4 (bvadd (_ bv59 6) (sc_t 4))))))
 (let (($x1673 (not (= ((_ extract 6 6) (bvadd (_ bv1 7) (concat (_ bv0 1) (sc_t 3)))) (_ bv0 1)))))
 (let (($x3614 (exc_halt_t 3)))
 (let (($x7854 (exc_halt_t 4)))
 (let (($x7141 (= $x7854 (or $x3614 $x1673))))
 (let (($x9474 (forall ((w (_ BitVec 256)) )(let ((?x2357 (storage_t x_0 x_1 x_2 w_1 x_TIMESTAMP 3 w)))
 (let ((?x8407 (storage_t x_0 x_1 x_2 w_1 x_TIMESTAMP 4 w)))
 (= ?x8407 ?x2357))))
 ))
 (let (($x10140 (forall ((n (_ BitVec 6)) )(let ((?x11304 (sc_t 3)))
 (let (($x9851 (bvsle ?x11304 n)))
 (let ((?x1699 (stack_t x_0 x_1 x_2 w_1 x_TIMESTAMP 3 n)))
 (let ((?x1732 (stack_t x_0 x_1 x_2 w_1 x_TIMESTAMP 4 n)))
 (or (= ?x1732 ?x1699) $x9851))))))
 ))
 (let ((?x4818 (sc_t 4)))
 (let (($x4630 (= ?x4818 (bvadd (_ bv1 6) (sc_t 3)))))
 (let ((?x8486 (used_gas_t x_0 x_1 x_2 w_1 x_TIMESTAMP 4)))
 (let (($x1269 (= $x3614 (or (exc_halt_t 2) (not (bvsle (_ bv0 6) (bvadd (_ bv61 6) (sc_t 2))))))))
 (let (($x9812 (forall ((w (_ BitVec 256)) )(let ((?x9682 (storage_t x_0 x_1 x_2 w_1 x_TIMESTAMP 2 w)))
 (let ((?x2357 (storage_t x_0 x_1 x_2 w_1 x_TIMESTAMP 3 w)))
 (= ?x2357 ?x9682))))
 ))
 (let (($x6599 (forall ((n (_ BitVec 6)) )(let ((?x286 (stack_t x_0 x_1 x_2 w_1 x_TIMESTAMP 2 n)))
 (let ((?x1699 (stack_t x_0 x_1 x_2 w_1 x_TIMESTAMP 3 n)))
 (let ((?x6158 (sc_t 2)))
 (let ((?x1473 (bvadd (_ bv61 6) ?x6158)))
 (let (($x864 (bvsle ?x1473 n)))
 (or $x864 (= ?x1699 ?x286))))))))
 ))
 (let ((?x6158 (sc_t 2)))
 (let ((?x11304 (sc_t 3)))
 (let (($x6230 (= ?x11304 ?x6158)))
 (let ((?x9583 (used_gas_t x_0 x_1 x_2 w_1 x_TIMESTAMP 3)))
 (let (($x6414 (= (stack_t x_0 x_1 x_2 w_1 x_TIMESTAMP 3 (bvadd (_ bv62 6) ?x11304)) (stack_t x_0 x_1 x_2 w_1 x_TIMESTAMP 2 (bvadd (_ bv62 6) ?x6158)))))
 (let ((?x3122 (bvadd (_ bv63 6) ?x6158)))
 (let ((?x7780 (stack_t x_0 x_1 x_2 w_1 x_TIMESTAMP 2 ?x3122)))
 (let (($x7572 (= (stack_t x_0 x_1 x_2 w_1 x_TIMESTAMP 3 (bvadd (_ bv63 6) ?x11304)) (stack_t x_0 x_1 x_2 w_1 x_TIMESTAMP 2 (bvadd (_ bv61 6) ?x6158)))))
 (let (($x10144 (not (= ((_ extract 6 6) (bvadd (_ bv1 7) (concat (_ bv0 1) (sc_t 1)))) (_ bv0 1)))))
 (let (($x8377 (exc_halt_t 1)))
 (let (($x8304 (not (bvsle (_ bv0 6) (bvadd (_ bv60 6) (sc_t 1))))))
 (let (($x11434 (exc_halt_t 2)))
 (let (($x3148 (forall ((w (_ BitVec 256)) )(let ((?x10482 (storage_t x_0 x_1 x_2 w_1 x_TIMESTAMP 1 w)))
 (let ((?x9682 (storage_t x_0 x_1 x_2 w_1 x_TIMESTAMP 2 w)))
 (= ?x9682 ?x10482))))
 ))
 (let (($x5146 (forall ((n (_ BitVec 6)) )(let ((?x7154 (sc_t 1)))
 (let ((?x3548 (bvadd (_ bv60 6) ?x7154)))
 (let (($x10066 (bvsle ?x3548 n)))
 (let ((?x577 (stack_t x_0 x_1 x_2 w_1 x_TIMESTAMP 1 n)))
 (let ((?x286 (stack_t x_0 x_1 x_2 w_1 x_TIMESTAMP 2 n)))
 (or (= ?x286 ?x577) $x10066)))))))
 ))
 (let (($x10587 (= ?x6158 (bvadd (_ bv1 6) (sc_t 1)))))
 (let ((?x7062 (used_gas_t x_0 x_1 x_2 w_1 x_TIMESTAMP 2)))
 (let (($x4109 (= (stack_t x_0 x_1 x_2 w_1 x_TIMESTAMP 2 (bvadd (_ bv63 6) (sc_t 1))) (stack_t x_0 x_1 x_2 w_1 x_TIMESTAMP 1 (bvadd (_ bv63 6) (sc_t 1))))))
 (let (($x10673 (= (stack_t x_0 x_1 x_2 w_1 x_TIMESTAMP 2 (bvadd (_ bv62 6) (sc_t 1))) (stack_t x_0 x_1 x_2 w_1 x_TIMESTAMP 1 (bvadd (_ bv62 6) (sc_t 1))))))
 (let (($x9921 (= (stack_t x_0 x_1 x_2 w_1 x_TIMESTAMP 2 (bvadd (_ bv61 6) (sc_t 1))) (stack_t x_0 x_1 x_2 w_1 x_TIMESTAMP 1 (bvadd (_ bv61 6) (sc_t 1))))))
 (let ((?x7154 (sc_t 1)))
 (let ((?x3548 (bvadd (_ bv60 6) ?x7154)))
 (let ((?x7201 (stack_t x_0 x_1 x_2 w_1 x_TIMESTAMP 1 ?x3548)))
 (let (($x7894 (= $x8377 (or $x56 (not (= ((_ extract 6 6) (bvadd (_ bv1 7) (concat (_ bv0 1) ?x63))) (_ bv0 1)))))))
 (let (($x6559 (forall ((w (_ BitVec 256)) )(let ((?x171 (storage_t x_0 x_1 x_2 w_1 x_TIMESTAMP 0 w)))
 (let ((?x10482 (storage_t x_0 x_1 x_2 w_1 x_TIMESTAMP 1 w)))
 (= ?x10482 ?x171))))
 ))
 (let (($x4186 (forall ((n (_ BitVec 6)) )(let ((?x400 (stack_t x_0 x_1 x_2 w_1 x_TIMESTAMP 0 n)))
 (let ((?x577 (stack_t x_0 x_1 x_2 w_1 x_TIMESTAMP 1 n)))
 (let ((?x63 (sc_t 0)))
 (let (($x4174 (bvsle ?x63 n)))
 (or $x4174 (= ?x577 ?x400)))))))
 ))
 (let (($x3399 (= ?x7154 (bvadd (_ bv1 6) ?x63))))
 (let (($x11715 (= $x772 (or (exc_halt_s 5) (not (bvsle (_ bv0 6) (bvadd (_ bv61 6) (sc_s 5))))))))
 (let (($x11031 (forall ((w (_ BitVec 256)) )(let ((?x8984 (storage_s x_0 x_1 x_2 w_1 x_TIMESTAMP 5 w)))
 (let ((?x8333 (storage_s x_0 x_1 x_2 w_1 x_TIMESTAMP 6 w)))
 (= ?x8333 ?x8984))))
 ))
 (let (($x6589 (forall ((n (_ BitVec 6)) )(let ((?x4319 (sc_s 5)))
 (let ((?x9086 (bvadd (_ bv61 6) ?x4319)))
 (let (($x11795 (bvsle ?x9086 n)))
 (let ((?x559 (stack_s x_0 x_1 x_2 w_1 x_TIMESTAMP 5 n)))
 (let ((?x5500 (stack_s x_0 x_1 x_2 w_1 x_TIMESTAMP 6 n)))
 (or (= ?x5500 ?x559) $x11795)))))))
 ))
 (let ((?x4319 (sc_s 5)))
 (let (($x4127 (= ?x926 ?x4319)))
 (let (($x7697 (= (used_gas_s x_0 x_1 x_2 w_1 x_TIMESTAMP 6) (+ 3 (used_gas_s x_0 x_1 x_2 w_1 x_TIMESTAMP 5)))))
 (let (($x2758 (= (stack_s x_0 x_1 x_2 w_1 x_TIMESTAMP 6 (bvadd (_ bv62 6) ?x926)) (stack_s x_0 x_1 x_2 w_1 x_TIMESTAMP 5 (bvadd (_ bv62 6) ?x4319)))))
 (let (($x4945 (= (stack_s x_0 x_1 x_2 w_1 x_TIMESTAMP 6 (bvadd (_ bv61 6) ?x926)) (stack_s x_0 x_1 x_2 w_1 x_TIMESTAMP 5 (bvadd (_ bv63 6) ?x4319)))))
 (let (($x277 (= (stack_s x_0 x_1 x_2 w_1 x_TIMESTAMP 6 (bvadd (_ bv63 6) ?x926)) (stack_s x_0 x_1 x_2 w_1 x_TIMESTAMP 5 (bvadd (_ bv61 6) ?x4319)))))
 (let (($x5185 (not (= ((_ extract 6 6) (bvadd (_ bv1 7) (concat (_ bv0 1) (sc_s 4)))) (_ bv0 1)))))
 (let (($x7172 (exc_halt_s 4)))
 (let (($x11317 (exc_halt_s 5)))
 (let (($x6195 (= $x11317 (or $x7172 $x5185))))
 (let (($x5970 (forall ((w (_ BitVec 256)) )(let ((?x2030 (storage_s x_0 x_1 x_2 w_1 x_TIMESTAMP 4 w)))
 (let ((?x8984 (storage_s x_0 x_1 x_2 w_1 x_TIMESTAMP 5 w)))
 (= ?x8984 ?x2030))))
 ))
 (let (($x2230 (forall ((n (_ BitVec 6)) )(let ((?x4305 (sc_s 4)))
 (let (($x11189 (bvsle ?x4305 n)))
 (let ((?x357 (stack_s x_0 x_1 x_2 w_1 x_TIMESTAMP 4 n)))
 (let ((?x559 (stack_s x_0 x_1 x_2 w_1 x_TIMESTAMP 5 n)))
 (or (= ?x559 ?x357) $x11189))))))
 ))
 (let (($x2447 (= ?x4319 (bvadd (_ bv1 6) (sc_s 4)))))
 (let ((?x11913 (used_gas_s x_0 x_1 x_2 w_1 x_TIMESTAMP 5)))
 (let (($x10576 (= $x7172 (or (exc_halt_s 3) (not (bvsle (_ bv0 6) (bvadd (_ bv61 6) (sc_s 3))))))))
 (let (($x4309 (forall ((w (_ BitVec 256)) )(let ((?x7032 (storage_s x_0 x_1 x_2 w_1 x_TIMESTAMP 3 w)))
 (let ((?x2030 (storage_s x_0 x_1 x_2 w_1 x_TIMESTAMP 4 w)))
 (= ?x2030 ?x7032))))
 ))
 (let (($x1066 (forall ((n (_ BitVec 6)) )(let ((?x1495 (stack_s x_0 x_1 x_2 w_1 x_TIMESTAMP 3 n)))
 (let ((?x357 (stack_s x_0 x_1 x_2 w_1 x_TIMESTAMP 4 n)))
 (let ((?x275 (sc_s 3)))
 (let ((?x2898 (bvadd (_ bv61 6) ?x275)))
 (let (($x6364 (bvsle ?x2898 n)))
 (or $x6364 (= ?x357 ?x1495))))))))
 ))
 (let ((?x275 (sc_s 3)))
 (let ((?x4305 (sc_s 4)))
 (let (($x7278 (= ?x4305 ?x275)))
 (let ((?x2542 (used_gas_s x_0 x_1 x_2 w_1 x_TIMESTAMP 4)))
 (let (($x3753 (= (stack_s x_0 x_1 x_2 w_1 x_TIMESTAMP 4 (bvadd (_ bv62 6) ?x4305)) (stack_s x_0 x_1 x_2 w_1 x_TIMESTAMP 3 (bvadd (_ bv62 6) ?x275)))))
 (let ((?x5573 (bvadd (_ bv63 6) ?x275)))
 (let ((?x7521 (stack_s x_0 x_1 x_2 w_1 x_TIMESTAMP 3 ?x5573)))
 (let (($x4855 (= (stack_s x_0 x_1 x_2 w_1 x_TIMESTAMP 4 (bvadd (_ bv63 6) ?x4305)) (stack_s x_0 x_1 x_2 w_1 x_TIMESTAMP 3 (bvadd (_ bv61 6) ?x275)))))
 (let (($x10213 (not (= ((_ extract 6 6) (bvadd (_ bv1 7) (concat (_ bv0 1) (sc_s 2)))) (_ bv0 1)))))
 (let (($x247 (exc_halt_s 2)))
 (let (($x292 (exc_halt_s 3)))
 (let (($x5821 (= $x292 (or $x247 (not (bvsle (_ bv0 6) (bvadd (_ bv60 6) (sc_s 2)))) $x10213))))
 (let (($x7862 (forall ((w (_ BitVec 256)) )(let ((?x10771 (storage_s x_0 x_1 x_2 w_1 x_TIMESTAMP 2 w)))
 (let ((?x7032 (storage_s x_0 x_1 x_2 w_1 x_TIMESTAMP 3 w)))
 (= ?x7032 ?x10771))))
 ))
 (let (($x3382 (forall ((n (_ BitVec 6)) )(let ((?x218 (sc_s 2)))
 (let ((?x10649 (bvadd (_ bv60 6) ?x218)))
 (let (($x6922 (bvsle ?x10649 n)))
 (let ((?x11214 (stack_s x_0 x_1 x_2 w_1 x_TIMESTAMP 2 n)))
 (let ((?x1495 (stack_s x_0 x_1 x_2 w_1 x_TIMESTAMP 3 n)))
 (or (= ?x1495 ?x11214) $x6922)))))))
 ))
 (let (($x4099 (= ?x275 (bvadd (_ bv1 6) (sc_s 2)))))
 (let ((?x1598 (used_gas_s x_0 x_1 x_2 w_1 x_TIMESTAMP 3)))
 (let ((?x218 (sc_s 2)))
 (let ((?x8683 (bvadd (_ bv63 6) ?x218)))
 (let ((?x250 (stack_s x_0 x_1 x_2 w_1 x_TIMESTAMP 2 ?x8683)))
 (let ((?x4488 (bvadd (_ bv62 6) ?x218)))
 (let ((?x4714 (stack_s x_0 x_1 x_2 w_1 x_TIMESTAMP 2 ?x4488)))
 (let ((?x11721 (bvadd (_ bv61 6) ?x218)))
 (let ((?x4671 (stack_s x_0 x_1 x_2 w_1 x_TIMESTAMP 2 ?x11721)))
 (let ((?x10649 (bvadd (_ bv60 6) ?x218)))
 (let ((?x7820 (stack_s x_0 x_1 x_2 w_1 x_TIMESTAMP 2 ?x10649)))
 (let (($x7990 (= $x247 (or (exc_halt_s 1) (not (bvsle (_ bv0 6) (bvadd (_ bv61 6) (sc_s 1))))))))
 (let (($x3186 (forall ((w (_ BitVec 256)) )(let ((?x5695 (storage_s x_0 x_1 x_2 w_1 x_TIMESTAMP 1 w)))
 (let ((?x10771 (storage_s x_0 x_1 x_2 w_1 x_TIMESTAMP 2 w)))
 (= ?x10771 ?x5695))))
 ))
 (let (($x8744 (forall ((n (_ BitVec 6)) )(let ((?x9755 (stack_s x_0 x_1 x_2 w_1 x_TIMESTAMP 1 n)))
 (let ((?x11214 (stack_s x_0 x_1 x_2 w_1 x_TIMESTAMP 2 n)))
 (let ((?x154 (sc_s 1)))
 (let ((?x7964 (bvadd (_ bv61 6) ?x154)))
 (let (($x96 (bvsle ?x7964 n)))
 (or $x96 (= ?x11214 ?x9755))))))))
 ))
 (let ((?x154 (sc_s 1)))
 (let (($x3954 (= ?x218 ?x154)))
 (let ((?x619 (used_gas_s x_0 x_1 x_2 w_1 x_TIMESTAMP 2)))
 (let (($x189 (exc_halt_s 1)))
 (let (($x10431 (= $x189 (or $x57 (not (= ((_ extract 6 6) (bvadd (_ bv1 7) (concat (_ bv0 1) ?x72))) (_ bv0 1)))))))
 (let (($x4841 (forall ((w (_ BitVec 256)) )(let ((?x4609 (storage_s x_0 x_1 x_2 w_1 x_TIMESTAMP 0 w)))
 (let ((?x5695 (storage_s x_0 x_1 x_2 w_1 x_TIMESTAMP 1 w)))
 (= ?x5695 ?x4609))))
 ))
 (let (($x11678 (forall ((n (_ BitVec 6)) )(let ((?x72 (sc_s 0)))
 (let (($x2932 (bvsle ?x72 n)))
 (let ((?x8851 (stack_s x_0 x_1 x_2 w_1 x_TIMESTAMP 0 n)))
 (let ((?x9755 (stack_s x_0 x_1 x_2 w_1 x_TIMESTAMP 1 n)))
 (or (= ?x9755 ?x8851) $x2932))))))
 ))
 (let (($x6741 (= ?x154 (bvadd (_ bv1 6) ?x72))))
 (let (($x1338 (forall ((w (_ BitVec 256)) )(let ((?x4609 (storage_s x_0 x_1 x_2 w_1 x_TIMESTAMP 0 w)))
 (= ?x4609 (_ bv0 256))))
 ))
 (let (($x1554 (= ?x7959 0)))
 (let (($x3561 (not $x57)))
 (let (($x5665 (= (stack_s x_0 x_1 x_2 w_1 x_TIMESTAMP 0 (_ bv2 6)) x_2)))
 (let (($x5713 (= (stack_s x_0 x_1 x_2 w_1 x_TIMESTAMP 0 (_ bv1 6)) x_1)))
 (let (($x5482 (= (stack_s x_0 x_1 x_2 w_1 x_TIMESTAMP 0 (_ bv0 6)) x_0)))
 (let (($x1849 (= ?x72 (_ bv3 6))))
 (and $x1849 $x5482 $x5713 $x5665 $x3561 $x1554 $x1338 (= (stack_s x_0 x_1 x_2 w_1 x_TIMESTAMP 1 ?x72) x_TIMESTAMP) (= (used_gas_s x_0 x_1 x_2 w_1 x_TIMESTAMP 1) (+ 2 ?x7959)) $x6741 $x11678 $x4841 $x10431 (= ?x250 (stack_s x_0 x_1 x_2 w_1 x_TIMESTAMP 1 (bvadd (_ bv61 6) ?x154))) (= ?x4671 (stack_s x_0 x_1 x_2 w_1 x_TIMESTAMP 1 (bvadd (_ bv63 6) ?x154))) (= ?x4714 (stack_s x_0 x_1 x_2 w_1 x_TIMESTAMP 1 (bvadd (_ bv62 6) ?x154))) (= ?x619 (+ 3 (used_gas_s x_0 x_1 x_2 w_1 x_TIMESTAMP 1))) $x3954 $x8744 $x3186 $x7990 (= ?x7521 ?x7820) (= (stack_s x_0 x_1 x_2 w_1 x_TIMESTAMP 3 ?x10649) ?x7820) (= (stack_s x_0 x_1 x_2 w_1 x_TIMESTAMP 3 ?x11721) ?x4671) (= (stack_s x_0 x_1 x_2 w_1 x_TIMESTAMP 3 ?x4488) ?x4714) (= (stack_s x_0 x_1 x_2 w_1 x_TIMESTAMP 3 ?x8683) ?x250) (= ?x1598 (+ 3 ?x619)) $x4099 $x3382 $x7862 $x5821 $x4855 (= (stack_s x_0 x_1 x_2 w_1 x_TIMESTAMP 4 (bvadd (_ bv61 6) ?x4305)) ?x7521) $x3753 (= ?x2542 (+ 3 ?x1598)) $x7278 $x1066 $x4309 $x10576 (= (stack_s x_0 x_1 x_2 w_1 x_TIMESTAMP 5 ?x4305) w_1) (= ?x11913 (+ 3 ?x2542)) $x2447 $x2230 $x5970 $x6195 $x277 $x4945 $x2758 $x7697 $x4127 $x6589 $x11031 $x11715 (= (stack_t x_0 x_1 x_2 w_1 x_TIMESTAMP 1 ?x63) w_1) (= (used_gas_t x_0 x_1 x_2 w_1 x_TIMESTAMP 1) (+ 3 ?x1423)) $x3399 $x4186 $x6559 $x7894 (= ?x7780 ?x7201) (= (stack_t x_0 x_1 x_2 w_1 x_TIMESTAMP 2 ?x3548) ?x7201) $x9921 $x10673 $x4109 (= ?x7062 (+ 3 (used_gas_t x_0 x_1 x_2 w_1 x_TIMESTAMP 1))) $x10587 $x5146 $x3148 (= $x11434 (or $x8304 $x8377 $x10144)) $x7572 (= (stack_t x_0 x_1 x_2 w_1 x_TIMESTAMP 3 (bvadd (_ bv61 6) ?x11304)) ?x7780) $x6414 (= ?x9583 (+ 3 ?x7062)) $x6230 $x6599 $x9812 $x1269 (= (stack_t x_0 x_1 x_2 w_1 x_TIMESTAMP 4 ?x11304) x_TIMESTAMP) (= ?x8486 (+ 2 ?x9583)) $x4630 $x10140 $x9474 $x7141 $x9666 $x11287 $x4032 $x322 $x7095 $x10893 (= ?x8961 ?x4818) $x10683 $x6814 $x9537 $x73 $x11712 $x58 $x9442 $x7532 (not (and $x5889 $x11456 $x11108 $x9422)))))))))))))))))))))))))))))))))))))))))))))))))))))))))))))))))))))))))))))))))))))))))))))))))))))))))))))))))))))))))))))))))))))
 )
(check-sat)
(get-proof)
